(set-info :smt-lib-version 2.6)
(set-info :category "crafted")
(set-logic QF_FFA)
(define-sort FF0 () (_ FiniteField 52435875175126190479447740508185965837690552500527637822603658699938581184513))
(declare-fun x7 () Bool)
(declare-fun x6 () Bool)
(declare-fun x5 () Bool)
(declare-fun x4 () Bool)
(declare-fun x3 () Bool)
(declare-fun x2 () Bool)
(declare-fun x1 () Bool)
(declare-fun x0 () Bool)
(declare-fun out () FF0)
(declare-fun _14 () FF0)
(declare-fun _13 () FF0)
(declare-fun _7 () FF0)
(declare-fun _12 () FF0)
(declare-fun _6 () FF0)
(declare-fun _11 () FF0)
(declare-fun _5 () FF0)
(declare-fun _10 () FF0)
(declare-fun _4 () FF0)
(declare-fun _9 () FF0)
(declare-fun _3 () FF0)
(declare-fun _8 () FF0)
(declare-fun _2 () FF0)
(declare-fun _1 () FF0)
(declare-fun _0 () FF0)
(assert 
  (let ((let0 x7))
  (let ((let1 x6))
  (let ((let2 x5))
  (let ((let3 x4))
  (let ((let4 x3))
  (let ((let5 x2))
  (let ((let6 x1))
  (let ((let7 x0))
  (let ((let8 (or let7 let6 let5 let4 let3 let2 let1 let0)))
  (let ((let9 out))
  (let ((let10 (as ff1 FF0)))
  (let ((let11 (= let10 let9)))
  (let ((let12 (= let11 let8)))
  (let ((let13 (as ff0 FF0)))
  (let ((let14 (= let13 let9)))
  (let ((let15 (or let11 let14)))
  (let ((let16 (and let15 let12)))
  (let ((let17 (as ff52435875175126190479447740508185965837690552500527637822603658699938581184512 FF0)))
  (let ((let18 _14))
  (let ((let19 (ff.mul let18 let17)))
  (let ((let20 _13))
  (let ((let21 _7))
  (let ((let22 (ff.add let21 let20 let19)))
  (let ((let23 (ff.mul let20 let21)))
  (let ((let24 (= let23 let22)))
  (let ((let25 (ff.mul let20 let17)))
  (let ((let26 _12))
  (let ((let27 _6))
  (let ((let28 (ff.add let27 let26 let25)))
  (let ((let29 (ff.mul let26 let27)))
  (let ((let30 (= let29 let28)))
  (let ((let31 (ff.mul let26 let17)))
  (let ((let32 _11))
  (let ((let33 _5))
  (let ((let34 (ff.add let33 let32 let31)))
  (let ((let35 (ff.mul let32 let33)))
  (let ((let36 (= let35 let34)))
  (let ((let37 (ff.mul let32 let17)))
  (let ((let38 _10))
  (let ((let39 _4))
  (let ((let40 (ff.add let39 let38 let37)))
  (let ((let41 (ff.mul let38 let39)))
  (let ((let42 (= let41 let40)))
  (let ((let43 (ff.mul let38 let17)))
  (let ((let44 _9))
  (let ((let45 _3))
  (let ((let46 (ff.add let45 let44 let43)))
  (let ((let47 (ff.mul let44 let45)))
  (let ((let48 (= let47 let46)))
  (let ((let49 (ff.mul let44 let17)))
  (let ((let50 _8))
  (let ((let51 _2))
  (let ((let52 (ff.add let51 let50 let49)))
  (let ((let53 (ff.mul let50 let51)))
  (let ((let54 (= let53 let52)))
  (let ((let55 (ff.mul let50 let17)))
  (let ((let56 _1))
  (let ((let57 _0))
  (let ((let58 (ff.add let57 let56 let55)))
  (let ((let59 (ff.mul let57 let56)))
  (let ((let60 (= let59 let58)))
  (let ((let61 (ff.mul let21 let21)))
  (let ((let62 (= let61 let21)))
  (let ((let63 (ff.mul let27 let27)))
  (let ((let64 (= let63 let27)))
  (let ((let65 (ff.mul let33 let33)))
  (let ((let66 (= let65 let33)))
  (let ((let67 (ff.mul let39 let39)))
  (let ((let68 (= let67 let39)))
  (let ((let69 (ff.mul let45 let45)))
  (let ((let70 (= let69 let45)))
  (let ((let71 (ff.mul let51 let51)))
  (let ((let72 (= let71 let51)))
  (let ((let73 (ff.mul let56 let56)))
  (let ((let74 (= let73 let56)))
  (let ((let75 (ff.mul let57 let57)))
  (let ((let76 (= let75 let57)))
  (let ((let77 (and let76 let74 let72 let70 let68 let66 let64 let62 let60 let54 let48 let42 let36 let30 let24)))
  (let ((let78 (ite let6 let10 let13)))
  (let ((let79 (= let56 let78)))
  (let ((let80 (ite let3 let10 let13)))
  (let ((let81 (= let39 let80)))
  (let ((let82 (ite let1 let10 let13)))
  (let ((let83 (= let27 let82)))
  (let ((let84 (ite let4 let10 let13)))
  (let ((let85 (= let45 let84)))
  (let ((let86 (ite let7 let10 let13)))
  (let ((let87 (= let57 let86)))
  (let ((let88 (ite let2 let10 let13)))
  (let ((let89 (= let33 let88)))
  (let ((let90 (ite let5 let10 let13)))
  (let ((let91 (= let51 let90)))
  (let ((let92 (ite let0 let10 let13)))
  (let ((let93 (= let21 let92)))
  (let ((let94 (and let93 let91 let89 let87 let85 let83 let81 let79)))
  (let ((let95 (and let94 let77)))
  (let ((let96 (=> let95 let16)))
  (let ((let97 (not let96)))
  let97
))))))))))))))))))))))))))))))))))))))))))))))))))))))))))))))))))))))))))))))))))))))))))))))))))
)
(check-sat)
